language Essence 1.3

letting colouring be function(0 --> 0, 1 --> 1, 2 --> 3, 3 --> 11, 4 --> 2, 5 --> 13, 6 --> 6, 7 --> 12, 8 --> 16)
letting edgeID be
        function(0 --> 1, 1 --> 2, 2 --> 8, 3 --> 9, 4 --> 11, 5 --> 7, 6 --> 6, 7 --> 12, 8 --> 16, 9 --> 15,
                 10 --> 13, 11 --> 5, 12 --> 14, 13 --> 3, 14 --> 10, 15 --> 4)
